17	4
20	25	25	28	
0	0	0	0	0	3	2	3	4	
3	7	8	10	4	3	5	12	17	
4	6	5	3	1	3	5	7	9	
5	4	10	10	10	3	6	15	17	
8	8	2	8	1	3	8	11	13	
25	1	1	6	10	3	12	14	16	
125	8	4	5	7	3	17	17	17	
100	4	5	9	3	3	10	17	17	
200	2	3	8	1	3	12	14	17	
250	3	9	4	7	3	14	17	17	
100	1	7	2	9	2	15	17	
75	7	5	4	9	3	13	17	17	
10	6	5	6	5	3	17	17	17	
6	4	10	3	6	1	17	
6	1	7	4	10	3	17	17	17	
10	7	5	5	4	3	17	17	17	
0	0	0	0	0	0	
